============================[ Problem Statistics ]=============================|                                                                             ||  Number of variables:          4242                                         ||  Number of clauses:           10254                                         ||  Parse time:                   0.65 s                                       ||                                                                             |============================[ Search Statistics ]==============================| Conflicts |          ORIGINAL         |          LEARNT          | Progress ||           |    Vars  Clauses Literals |    Limit  Clauses Lit/Cl |          |===============================================================================|       100 |    1591     6459  1023670 |     2368      100     53 | 62.501 % ||       250 |    1591     6459  1023670 |     2605      250     75 | 62.495 % |===============================================================================restarts              : 3conflicts             : 351            (358 /sec)decisions             : 616            (0.00 % random) (628 /sec)propagations          : 11957          (12189 /sec)conflict literals     : 28507          (94.63 % deleted)CPU time              : 0.981 sSATISFIABLE